c FILE: queen14_14.col
c Translated from Stanford GraphBase File: queen14_14.gb
c Stanford GraphBase ID: gunion(board(14,14,0,0,-1,0,0),board(14,14,0,0,-2,0,0),0,0)
p edge 196 8372
e 2 1
e 3 1
e 3 2
e 4 1
e 4 2
e 4 3
e 5 1
e 5 2
e 5 3
e 5 4
e 6 1
e 6 2
e 6 3
e 6 4
e 6 5
e 7 1
e 7 2
e 7 3
e 7 4
e 7 5
e 7 6
e 8 1
e 8 2
e 8 3
e 8 4
e 8 5
e 8 6
e 8 7
e 9 1
e 9 2
e 9 3
e 9 4
e 9 5
e 9 6
e 9 7
e 9 8
e 10 1
e 10 2
e 10 3
e 10 4
e 10 5
e 10 6
e 10 7
e 10 8
e 10 9
e 11 1
e 11 2
e 11 3
e 11 4
e 11 5
e 11 6
e 11 7
e 11 8
e 11 9
e 11 10
e 12 1
e 12 2
e 12 3
e 12 4
e 12 5
e 12 6
e 12 7
e 12 8
e 12 9
e 12 10
e 12 11
e 13 1
e 13 2
e 13 3
e 13 4
e 13 5
e 13 6
e 13 7
e 13 8
e 13 9
e 13 10
e 13 11
e 13 12
e 14 1
e 14 2
e 14 3
e 14 4
e 14 5
e 14 6
e 14 7
e 14 8
e 14 9
e 14 10
e 14 11
e 14 12
e 14 13
e 15 1
e 15 2
e 16 1
e 16 2
e 16 3
e 16 15
e 17 2
e 17 3
e 17 4
e 17 15
e 17 16
e 18 3
e 18 4
e 18 5
e 18 15
e 18 16
e 18 17
e 19 4
e 19 5
e 19 6
e 19 15
e 19 16
e 19 17
e 19 18
e 20 5
e 20 6
e 20 7
e 20 15
e 20 16
e 20 17
e 20 18
e 20 19
e 21 6
e 21 7
e 21 8
e 21 15
e 21 16
e 21 17
e 21 18
e 21 19
e 21 20
e 22 7
e 22 8
e 22 9
e 22 15
e 22 16
e 22 17
e 22 18
e 22 19
e 22 20
e 22 21
e 23 8
e 23 9
e 23 10
e 23 15
e 23 16
e 23 17
e 23 18
e 23 19
e 23 20
e 23 21
e 23 22
e 24 9
e 24 10
e 24 11
e 24 15
e 24 16
e 24 17
e 24 18
e 24 19
e 24 20
e 24 21
e 24 22
e 24 23
e 25 10
e 25 11
e 25 12
e 25 15
e 25 16
e 25 17
e 25 18
e 25 19
e 25 20
e 25 21
e 25 22
e 25 23
e 25 24
e 26 11
e 26 12
e 26 13
e 26 15
e 26 16
e 26 17
e 26 18
e 26 19
e 26 20
e 26 21
e 26 22
e 26 23
e 26 24
e 26 25
e 27 12
e 27 13
e 27 14
e 27 15
e 27 16
e 27 17
e 27 18
e 27 19
e 27 20
e 27 21
e 27 22
e 27 23
e 27 24
e 27 25
e 27 26
e 28 13
e 28 14
e 28 15
e 28 16
e 28 17
e 28 18
e 28 19
e 28 20
e 28 21
e 28 22
e 28 23
e 28 24
e 28 25
e 28 26
e 28 27
e 29 1
e 29 3
e 29 15
e 29 16
e 30 2
e 30 4
e 30 15
e 30 16
e 30 17
e 30 29
e 31 1
e 31 3
e 31 5
e 31 16
e 31 17
e 31 18
e 31 29
e 31 30
e 32 2
e 32 4
e 32 6
e 32 17
e 32 18
e 32 19
e 32 29
e 32 30
e 32 31
e 33 3
e 33 5
e 33 7
e 33 18
e 33 19
e 33 20
e 33 29
e 33 30
e 33 31
e 33 32
e 34 4
e 34 6
e 34 8
e 34 19
e 34 20
e 34 21
e 34 29
e 34 30
e 34 31
e 34 32
e 34 33
e 35 5
e 35 7
e 35 9
e 35 20
e 35 21
e 35 22
e 35 29
e 35 30
e 35 31
e 35 32
e 35 33
e 35 34
e 36 6
e 36 8
e 36 10
e 36 21
e 36 22
e 36 23
e 36 29
e 36 30
e 36 31
e 36 32
e 36 33
e 36 34
e 36 35
e 37 7
e 37 9
e 37 11
e 37 22
e 37 23
e 37 24
e 37 29
e 37 30
e 37 31
e 37 32
e 37 33
e 37 34
e 37 35
e 37 36
e 38 8
e 38 10
e 38 12
e 38 23
e 38 24
e 38 25
e 38 29
e 38 30
e 38 31
e 38 32
e 38 33
e 38 34
e 38 35
e 38 36
e 38 37
e 39 9
e 39 11
e 39 13
e 39 24
e 39 25
e 39 26
e 39 29
e 39 30
e 39 31
e 39 32
e 39 33
e 39 34
e 39 35
e 39 36
e 39 37
e 39 38
e 40 10
e 40 12
e 40 14
e 40 25
e 40 26
e 40 27
e 40 29
e 40 30
e 40 31
e 40 32
e 40 33
e 40 34
e 40 35
e 40 36
e 40 37
e 40 38
e 40 39
e 41 11
e 41 13
e 41 26
e 41 27
e 41 28
e 41 29
e 41 30
e 41 31
e 41 32
e 41 33
e 41 34
e 41 35
e 41 36
e 41 37
e 41 38
e 41 39
e 41 40
e 42 12
e 42 14
e 42 27
e 42 28
e 42 29
e 42 30
e 42 31
e 42 32
e 42 33
e 42 34
e 42 35
e 42 36
e 42 37
e 42 38
e 42 39
e 42 40
e 42 41
e 43 1
e 43 4
e 43 15
e 43 17
e 43 29
e 43 30
e 44 2
e 44 5
e 44 16
e 44 18
e 44 29
e 44 30
e 44 31
e 44 43
e 45 3
e 45 6
e 45 15
e 45 17
e 45 19
e 45 30
e 45 31
e 45 32
e 45 43
e 45 44
e 46 1
e 46 4
e 46 7
e 46 16
e 46 18
e 46 20
e 46 31
e 46 32
e 46 33
e 46 43
e 46 44
e 46 45
e 47 2
e 47 5
e 47 8
e 47 17
e 47 19
e 47 21
e 47 32
e 47 33
e 47 34
e 47 43
e 47 44
e 47 45
e 47 46
e 48 3
e 48 6
e 48 9
e 48 18
e 48 20
e 48 22
e 48 33
e 48 34
e 48 35
e 48 43
e 48 44
e 48 45
e 48 46
e 48 47
e 49 4
e 49 7
e 49 10
e 49 19
e 49 21
e 49 23
e 49 34
e 49 35
e 49 36
e 49 43
e 49 44
e 49 45
e 49 46
e 49 47
e 49 48
e 50 5
e 50 8
e 50 11
e 50 20
e 50 22
e 50 24
e 50 35
e 50 36
e 50 37
e 50 43
e 50 44
e 50 45
e 50 46
e 50 47
e 50 48
e 50 49
e 51 6
e 51 9
e 51 12
e 51 21
e 51 23
e 51 25
e 51 36
e 51 37
e 51 38
e 51 43
e 51 44
e 51 45
e 51 46
e 51 47
e 51 48
e 51 49
e 51 50
e 52 7
e 52 10
e 52 13
e 52 22
e 52 24
e 52 26
e 52 37
e 52 38
e 52 39
e 52 43
e 52 44
e 52 45
e 52 46
e 52 47
e 52 48
e 52 49
e 52 50
e 52 51
e 53 8
e 53 11
e 53 14
e 53 23
e 53 25
e 53 27
e 53 38
e 53 39
e 53 40
e 53 43
e 53 44
e 53 45
e 53 46
e 53 47
e 53 48
e 53 49
e 53 50
e 53 51
e 53 52
e 54 9
e 54 12
e 54 24
e 54 26
e 54 28
e 54 39
e 54 40
e 54 41
e 54 43
e 54 44
e 54 45
e 54 46
e 54 47
e 54 48
e 54 49
e 54 50
e 54 51
e 54 52
e 54 53
e 55 10
e 55 13
e 55 25
e 55 27
e 55 40
e 55 41
e 55 42
e 55 43
e 55 44
e 55 45
e 55 46
e 55 47
e 55 48
e 55 49
e 55 50
e 55 51
e 55 52
e 55 53
e 55 54
e 56 11
e 56 14
e 56 26
e 56 28
e 56 41
e 56 42
e 56 43
e 56 44
e 56 45
e 56 46
e 56 47
e 56 48
e 56 49
e 56 50
e 56 51
e 56 52
e 56 53
e 56 54
e 56 55
e 57 1
e 57 5
e 57 15
e 57 18
e 57 29
e 57 31
e 57 43
e 57 44
e 58 2
e 58 6
e 58 16
e 58 19
e 58 30
e 58 32
e 58 43
e 58 44
e 58 45
e 58 57
e 59 3
e 59 7
e 59 17
e 59 20
e 59 29
e 59 31
e 59 33
e 59 44
e 59 45
e 59 46
e 59 57
e 59 58
e 60 4
e 60 8
e 60 15
e 60 18
e 60 21
e 60 30
e 60 32
e 60 34
e 60 45
e 60 46
e 60 47
e 60 57
e 60 58
e 60 59
e 61 1
e 61 5
e 61 9
e 61 16
e 61 19
e 61 22
e 61 31
e 61 33
e 61 35
e 61 46
e 61 47
e 61 48
e 61 57
e 61 58
e 61 59
e 61 60
e 62 2
e 62 6
e 62 10
e 62 17
e 62 20
e 62 23
e 62 32
e 62 34
e 62 36
e 62 47
e 62 48
e 62 49
e 62 57
e 62 58
e 62 59
e 62 60
e 62 61
e 63 3
e 63 7
e 63 11
e 63 18
e 63 21
e 63 24
e 63 33
e 63 35
e 63 37
e 63 48
e 63 49
e 63 50
e 63 57
e 63 58
e 63 59
e 63 60
e 63 61
e 63 62
e 64 4
e 64 8
e 64 12
e 64 19
e 64 22
e 64 25
e 64 34
e 64 36
e 64 38
e 64 49
e 64 50
e 64 51
e 64 57
e 64 58
e 64 59
e 64 60
e 64 61
e 64 62
e 64 63
e 65 5
e 65 9
e 65 13
e 65 20
e 65 23
e 65 26
e 65 35
e 65 37
e 65 39
e 65 50
e 65 51
e 65 52
e 65 57
e 65 58
e 65 59
e 65 60
e 65 61
e 65 62
e 65 63
e 65 64
e 66 6
e 66 10
e 66 14
e 66 21
e 66 24
e 66 27
e 66 36
e 66 38
e 66 40
e 66 51
e 66 52
e 66 53
e 66 57
e 66 58
e 66 59
e 66 60
e 66 61
e 66 62
e 66 63
e 66 64
e 66 65
e 67 7
e 67 11
e 67 22
e 67 25
e 67 28
e 67 37
e 67 39
e 67 41
e 67 52
e 67 53
e 67 54
e 67 57
e 67 58
e 67 59
e 67 60
e 67 61
e 67 62
e 67 63
e 67 64
e 67 65
e 67 66
e 68 8
e 68 12
e 68 23
e 68 26
e 68 38
e 68 40
e 68 42
e 68 53
e 68 54
e 68 55
e 68 57
e 68 58
e 68 59
e 68 60
e 68 61
e 68 62
e 68 63
e 68 64
e 68 65
e 68 66
e 68 67
e 69 9
e 69 13
e 69 24
e 69 27
e 69 39
e 69 41
e 69 54
e 69 55
e 69 56
e 69 57
e 69 58
e 69 59
e 69 60
e 69 61
e 69 62
e 69 63
e 69 64
e 69 65
e 69 66
e 69 67
e 69 68
e 70 10
e 70 14
e 70 25
e 70 28
e 70 40
e 70 42
e 70 55
e 70 56
e 70 57
e 70 58
e 70 59
e 70 60
e 70 61
e 70 62
e 70 63
e 70 64
e 70 65
e 70 66
e 70 67
e 70 68
e 70 69
e 71 1
e 71 6
e 71 15
e 71 19
e 71 29
e 71 32
e 71 43
e 71 45
e 71 57
e 71 58
e 72 2
e 72 7
e 72 16
e 72 20
e 72 30
e 72 33
e 72 44
e 72 46
e 72 57
e 72 58
e 72 59
e 72 71
e 73 3
e 73 8
e 73 17
e 73 21
e 73 31
e 73 34
e 73 43
e 73 45
e 73 47
e 73 58
e 73 59
e 73 60
e 73 71
e 73 72
e 74 4
e 74 9
e 74 18
e 74 22
e 74 29
e 74 32
e 74 35
e 74 44
e 74 46
e 74 48
e 74 59
e 74 60
e 74 61
e 74 71
e 74 72
e 74 73
e 75 5
e 75 10
e 75 15
e 75 19
e 75 23
e 75 30
e 75 33
e 75 36
e 75 45
e 75 47
e 75 49
e 75 60
e 75 61
e 75 62
e 75 71
e 75 72
e 75 73
e 75 74
e 76 1
e 76 6
e 76 11
e 76 16
e 76 20
e 76 24
e 76 31
e 76 34
e 76 37
e 76 46
e 76 48
e 76 50
e 76 61
e 76 62
e 76 63
e 76 71
e 76 72
e 76 73
e 76 74
e 76 75
e 77 2
e 77 7
e 77 12
e 77 17
e 77 21
e 77 25
e 77 32
e 77 35
e 77 38
e 77 47
e 77 49
e 77 51
e 77 62
e 77 63
e 77 64
e 77 71
e 77 72
e 77 73
e 77 74
e 77 75
e 77 76
e 78 3
e 78 8
e 78 13
e 78 18
e 78 22
e 78 26
e 78 33
e 78 36
e 78 39
e 78 48
e 78 50
e 78 52
e 78 63
e 78 64
e 78 65
e 78 71
e 78 72
e 78 73
e 78 74
e 78 75
e 78 76
e 78 77
e 79 4
e 79 9
e 79 14
e 79 19
e 79 23
e 79 27
e 79 34
e 79 37
e 79 40
e 79 49
e 79 51
e 79 53
e 79 64
e 79 65
e 79 66
e 79 71
e 79 72
e 79 73
e 79 74
e 79 75
e 79 76
e 79 77
e 79 78
e 80 5
e 80 10
e 80 20
e 80 24
e 80 28
e 80 35
e 80 38
e 80 41
e 80 50
e 80 52
e 80 54
e 80 65
e 80 66
e 80 67
e 80 71
e 80 72
e 80 73
e 80 74
e 80 75
e 80 76
e 80 77
e 80 78
e 80 79
e 81 6
e 81 11
e 81 21
e 81 25
e 81 36
e 81 39
e 81 42
e 81 51
e 81 53
e 81 55
e 81 66
e 81 67
e 81 68
e 81 71
e 81 72
e 81 73
e 81 74
e 81 75
e 81 76
e 81 77
e 81 78
e 81 79
e 81 80
e 82 7
e 82 12
e 82 22
e 82 26
e 82 37
e 82 40
e 82 52
e 82 54
e 82 56
e 82 67
e 82 68
e 82 69
e 82 71
e 82 72
e 82 73
e 82 74
e 82 75
e 82 76
e 82 77
e 82 78
e 82 79
e 82 80
e 82 81
e 83 8
e 83 13
e 83 23
e 83 27
e 83 38
e 83 41
e 83 53
e 83 55
e 83 68
e 83 69
e 83 70
e 83 71
e 83 72
e 83 73
e 83 74
e 83 75
e 83 76
e 83 77
e 83 78
e 83 79
e 83 80
e 83 81
e 83 82
e 84 9
e 84 14
e 84 24
e 84 28
e 84 39
e 84 42
e 84 54
e 84 56
e 84 69
e 84 70
e 84 71
e 84 72
e 84 73
e 84 74
e 84 75
e 84 76
e 84 77
e 84 78
e 84 79
e 84 80
e 84 81
e 84 82
e 84 83
e 85 1
e 85 7
e 85 15
e 85 20
e 85 29
e 85 33
e 85 43
e 85 46
e 85 57
e 85 59
e 85 71
e 85 72
e 86 2
e 86 8
e 86 16
e 86 21
e 86 30
e 86 34
e 86 44
e 86 47
e 86 58
e 86 60
e 86 71
e 86 72
e 86 73
e 86 85
e 87 3
e 87 9
e 87 17
e 87 22
e 87 31
e 87 35
e 87 45
e 87 48
e 87 57
e 87 59
e 87 61
e 87 72
e 87 73
e 87 74
e 87 85
e 87 86
e 88 4
e 88 10
e 88 18
e 88 23
e 88 32
e 88 36
e 88 43
e 88 46
e 88 49
e 88 58
e 88 60
e 88 62
e 88 73
e 88 74
e 88 75
e 88 85
e 88 86
e 88 87
e 89 5
e 89 11
e 89 19
e 89 24
e 89 29
e 89 33
e 89 37
e 89 44
e 89 47
e 89 50
e 89 59
e 89 61
e 89 63
e 89 74
e 89 75
e 89 76
e 89 85
e 89 86
e 89 87
e 89 88
e 90 6
e 90 12
e 90 15
e 90 20
e 90 25
e 90 30
e 90 34
e 90 38
e 90 45
e 90 48
e 90 51
e 90 60
e 90 62
e 90 64
e 90 75
e 90 76
e 90 77
e 90 85
e 90 86
e 90 87
e 90 88
e 90 89
e 91 1
e 91 7
e 91 13
e 91 16
e 91 21
e 91 26
e 91 31
e 91 35
e 91 39
e 91 46
e 91 49
e 91 52
e 91 61
e 91 63
e 91 65
e 91 76
e 91 77
e 91 78
e 91 85
e 91 86
e 91 87
e 91 88
e 91 89
e 91 90
e 92 2
e 92 8
e 92 14
e 92 17
e 92 22
e 92 27
e 92 32
e 92 36
e 92 40
e 92 47
e 92 50
e 92 53
e 92 62
e 92 64
e 92 66
e 92 77
e 92 78
e 92 79
e 92 85
e 92 86
e 92 87
e 92 88
e 92 89
e 92 90
e 92 91
e 93 3
e 93 9
e 93 18
e 93 23
e 93 28
e 93 33
e 93 37
e 93 41
e 93 48
e 93 51
e 93 54
e 93 63
e 93 65
e 93 67
e 93 78
e 93 79
e 93 80
e 93 85
e 93 86
e 93 87
e 93 88
e 93 89
e 93 90
e 93 91
e 93 92
e 94 4
e 94 10
e 94 19
e 94 24
e 94 34
e 94 38
e 94 42
e 94 49
e 94 52
e 94 55
e 94 64
e 94 66
e 94 68
e 94 79
e 94 80
e 94 81
e 94 85
e 94 86
e 94 87
e 94 88
e 94 89
e 94 90
e 94 91
e 94 92
e 94 93
e 95 5
e 95 11
e 95 20
e 95 25
e 95 35
e 95 39
e 95 50
e 95 53
e 95 56
e 95 65
e 95 67
e 95 69
e 95 80
e 95 81
e 95 82
e 95 85
e 95 86
e 95 87
e 95 88
e 95 89
e 95 90
e 95 91
e 95 92
e 95 93
e 95 94
e 96 6
e 96 12
e 96 21
e 96 26
e 96 36
e 96 40
e 96 51
e 96 54
e 96 66
e 96 68
e 96 70
e 96 81
e 96 82
e 96 83
e 96 85
e 96 86
e 96 87
e 96 88
e 96 89
e 96 90
e 96 91
e 96 92
e 96 93
e 96 94
e 96 95
e 97 7
e 97 13
e 97 22
e 97 27
e 97 37
e 97 41
e 97 52
e 97 55
e 97 67
e 97 69
e 97 82
e 97 83
e 97 84
e 97 85
e 97 86
e 97 87
e 97 88
e 97 89
e 97 90
e 97 91
e 97 92
e 97 93
e 97 94
e 97 95
e 97 96
e 98 8
e 98 14
e 98 23
e 98 28
e 98 38
e 98 42
e 98 53
e 98 56
e 98 68
e 98 70
e 98 83
e 98 84
e 98 85
e 98 86
e 98 87
e 98 88
e 98 89
e 98 90
e 98 91
e 98 92
e 98 93
e 98 94
e 98 95
e 98 96
e 98 97
e 99 1
e 99 8
e 99 15
e 99 21
e 99 29
e 99 34
e 99 43
e 99 47
e 99 57
e 99 60
e 99 71
e 99 73
e 99 85
e 99 86
e 100 2
e 100 9
e 100 16
e 100 22
e 100 30
e 100 35
e 100 44
e 100 48
e 100 58
e 100 61
e 100 72
e 100 74
e 100 85
e 100 86
e 100 87
e 100 99
e 101 3
e 101 10
e 101 17
e 101 23
e 101 31
e 101 36
e 101 45
e 101 49
e 101 59
e 101 62
e 101 71
e 101 73
e 101 75
e 101 86
e 101 87
e 101 88
e 101 99
e 101 100
e 102 4
e 102 11
e 102 18
e 102 24
e 102 32
e 102 37
e 102 46
e 102 50
e 102 57
e 102 60
e 102 63
e 102 72
e 102 74
e 102 76
e 102 87
e 102 88
e 102 89
e 102 99
e 102 100
e 102 101
e 103 5
e 103 12
e 103 19
e 103 25
e 103 33
e 103 38
e 103 43
e 103 47
e 103 51
e 103 58
e 103 61
e 103 64
e 103 73
e 103 75
e 103 77
e 103 88
e 103 89
e 103 90
e 103 99
e 103 100
e 103 101
e 103 102
e 104 6
e 104 13
e 104 20
e 104 26
e 104 29
e 104 34
e 104 39
e 104 44
e 104 48
e 104 52
e 104 59
e 104 62
e 104 65
e 104 74
e 104 76
e 104 78
e 104 89
e 104 90
e 104 91
e 104 99
e 104 100
e 104 101
e 104 102
e 104 103
e 105 7
e 105 14
e 105 15
e 105 21
e 105 27
e 105 30
e 105 35
e 105 40
e 105 45
e 105 49
e 105 53
e 105 60
e 105 63
e 105 66
e 105 75
e 105 77
e 105 79
e 105 90
e 105 91
e 105 92
e 105 99
e 105 100
e 105 101
e 105 102
e 105 103
e 105 104
e 106 1
e 106 8
e 106 16
e 106 22
e 106 28
e 106 31
e 106 36
e 106 41
e 106 46
e 106 50
e 106 54
e 106 61
e 106 64
e 106 67
e 106 76
e 106 78
e 106 80
e 106 91
e 106 92
e 106 93
e 106 99
e 106 100
e 106 101
e 106 102
e 106 103
e 106 104
e 106 105
e 107 2
e 107 9
e 107 17
e 107 23
e 107 32
e 107 37
e 107 42
e 107 47
e 107 51
e 107 55
e 107 62
e 107 65
e 107 68
e 107 77
e 107 79
e 107 81
e 107 92
e 107 93
e 107 94
e 107 99
e 107 100
e 107 101
e 107 102
e 107 103
e 107 104
e 107 105
e 107 106
e 108 3
e 108 10
e 108 18
e 108 24
e 108 33
e 108 38
e 108 48
e 108 52
e 108 56
e 108 63
e 108 66
e 108 69
e 108 78
e 108 80
e 108 82
e 108 93
e 108 94
e 108 95
e 108 99
e 108 100
e 108 101
e 108 102
e 108 103
e 108 104
e 108 105
e 108 106
e 108 107
e 109 4
e 109 11
e 109 19
e 109 25
e 109 34
e 109 39
e 109 49
e 109 53
e 109 64
e 109 67
e 109 70
e 109 79
e 109 81
e 109 83
e 109 94
e 109 95
e 109 96
e 109 99
e 109 100
e 109 101
e 109 102
e 109 103
e 109 104
e 109 105
e 109 106
e 109 107
e 109 108
e 110 5
e 110 12
e 110 20
e 110 26
e 110 35
e 110 40
e 110 50
e 110 54
e 110 65
e 110 68
e 110 80
e 110 82
e 110 84
e 110 95
e 110 96
e 110 97
e 110 99
e 110 100
e 110 101
e 110 102
e 110 103
e 110 104
e 110 105
e 110 106
e 110 107
e 110 108
e 110 109
e 111 6
e 111 13
e 111 21
e 111 27
e 111 36
e 111 41
e 111 51
e 111 55
e 111 66
e 111 69
e 111 81
e 111 83
e 111 96
e 111 97
e 111 98
e 111 99
e 111 100
e 111 101
e 111 102
e 111 103
e 111 104
e 111 105
e 111 106
e 111 107
e 111 108
e 111 109
e 111 110
e 112 7
e 112 14
e 112 22
e 112 28
e 112 37
e 112 42
e 112 52
e 112 56
e 112 67
e 112 70
e 112 82
e 112 84
e 112 97
e 112 98
e 112 99
e 112 100
e 112 101
e 112 102
e 112 103
e 112 104
e 112 105
e 112 106
e 112 107
e 112 108
e 112 109
e 112 110
e 112 111
e 113 1
e 113 9
e 113 15
e 113 22
e 113 29
e 113 35
e 113 43
e 113 48
e 113 57
e 113 61
e 113 71
e 113 74
e 113 85
e 113 87
e 113 99
e 113 100
e 114 2
e 114 10
e 114 16
e 114 23
e 114 30
e 114 36
e 114 44
e 114 49
e 114 58
e 114 62
e 114 72
e 114 75
e 114 86
e 114 88
e 114 99
e 114 100
e 114 101
e 114 113
e 115 3
e 115 11
e 115 17
e 115 24
e 115 31
e 115 37
e 115 45
e 115 50
e 115 59
e 115 63
e 115 73
e 115 76
e 115 85
e 115 87
e 115 89
e 115 100
e 115 101
e 115 102
e 115 113
e 115 114
e 116 4
e 116 12
e 116 18
e 116 25
e 116 32
e 116 38
e 116 46
e 116 51
e 116 60
e 116 64
e 116 71
e 116 74
e 116 77
e 116 86
e 116 88
e 116 90
e 116 101
e 116 102
e 116 103
e 116 113
e 116 114
e 116 115
e 117 5
e 117 13
e 117 19
e 117 26
e 117 33
e 117 39
e 117 47
e 117 52
e 117 57
e 117 61
e 117 65
e 117 72
e 117 75
e 117 78
e 117 87
e 117 89
e 117 91
e 117 102
e 117 103
e 117 104
e 117 113
e 117 114
e 117 115
e 117 116
e 118 6
e 118 14
e 118 20
e 118 27
e 118 34
e 118 40
e 118 43
e 118 48
e 118 53
e 118 58
e 118 62
e 118 66
e 118 73
e 118 76
e 118 79
e 118 88
e 118 90
e 118 92
e 118 103
e 118 104
e 118 105
e 118 113
e 118 114
e 118 115
e 118 116
e 118 117
e 119 7
e 119 21
e 119 28
e 119 29
e 119 35
e 119 41
e 119 44
e 119 49
e 119 54
e 119 59
e 119 63
e 119 67
e 119 74
e 119 77
e 119 80
e 119 89
e 119 91
e 119 93
e 119 104
e 119 105
e 119 106
e 119 113
e 119 114
e 119 115
e 119 116
e 119 117
e 119 118
e 120 8
e 120 15
e 120 22
e 120 30
e 120 36
e 120 42
e 120 45
e 120 50
e 120 55
e 120 60
e 120 64
e 120 68
e 120 75
e 120 78
e 120 81
e 120 90
e 120 92
e 120 94
e 120 105
e 120 106
e 120 107
e 120 113
e 120 114
e 120 115
e 120 116
e 120 117
e 120 118
e 120 119
e 121 1
e 121 9
e 121 16
e 121 23
e 121 31
e 121 37
e 121 46
e 121 51
e 121 56
e 121 61
e 121 65
e 121 69
e 121 76
e 121 79
e 121 82
e 121 91
e 121 93
e 121 95
e 121 106
e 121 107
e 121 108
e 121 113
e 121 114
e 121 115
e 121 116
e 121 117
e 121 118
e 121 119
e 121 120
e 122 2
e 122 10
e 122 17
e 122 24
e 122 32
e 122 38
e 122 47
e 122 52
e 122 62
e 122 66
e 122 70
e 122 77
e 122 80
e 122 83
e 122 92
e 122 94
e 122 96
e 122 107
e 122 108
e 122 109
e 122 113
e 122 114
e 122 115
e 122 116
e 122 117
e 122 118
e 122 119
e 122 120
e 122 121
e 123 3
e 123 11
e 123 18
e 123 25
e 123 33
e 123 39
e 123 48
e 123 53
e 123 63
e 123 67
e 123 78
e 123 81
e 123 84
e 123 93
e 123 95
e 123 97
e 123 108
e 123 109
e 123 110
e 123 113
e 123 114
e 123 115
e 123 116
e 123 117
e 123 118
e 123 119
e 123 120
e 123 121
e 123 122
e 124 4
e 124 12
e 124 19
e 124 26
e 124 34
e 124 40
e 124 49
e 124 54
e 124 64
e 124 68
e 124 79
e 124 82
e 124 94
e 124 96
e 124 98
e 124 109
e 124 110
e 124 111
e 124 113
e 124 114
e 124 115
e 124 116
e 124 117
e 124 118
e 124 119
e 124 120
e 124 121
e 124 122
e 124 123
e 125 5
e 125 13
e 125 20
e 125 27
e 125 35
e 125 41
e 125 50
e 125 55
e 125 65
e 125 69
e 125 80
e 125 83
e 125 95
e 125 97
e 125 110
e 125 111
e 125 112
e 125 113
e 125 114
e 125 115
e 125 116
e 125 117
e 125 118
e 125 119
e 125 120
e 125 121
e 125 122
e 125 123
e 125 124
e 126 6
e 126 14
e 126 21
e 126 28
e 126 36
e 126 42
e 126 51
e 126 56
e 126 66
e 126 70
e 126 81
e 126 84
e 126 96
e 126 98
e 126 111
e 126 112
e 126 113
e 126 114
e 126 115
e 126 116
e 126 117
e 126 118
e 126 119
e 126 120
e 126 121
e 126 122
e 126 123
e 126 124
e 126 125
e 127 1
e 127 10
e 127 15
e 127 23
e 127 29
e 127 36
e 127 43
e 127 49
e 127 57
e 127 62
e 127 71
e 127 75
e 127 85
e 127 88
e 127 99
e 127 101
e 127 113
e 127 114
e 128 2
e 128 11
e 128 16
e 128 24
e 128 30
e 128 37
e 128 44
e 128 50
e 128 58
e 128 63
e 128 72
e 128 76
e 128 86
e 128 89
e 128 100
e 128 102
e 128 113
e 128 114
e 128 115
e 128 127
e 129 3
e 129 12
e 129 17
e 129 25
e 129 31
e 129 38
e 129 45
e 129 51
e 129 59
e 129 64
e 129 73
e 129 77
e 129 87
e 129 90
e 129 99
e 129 101
e 129 103
e 129 114
e 129 115
e 129 116
e 129 127
e 129 128
e 130 4
e 130 13
e 130 18
e 130 26
e 130 32
e 130 39
e 130 46
e 130 52
e 130 60
e 130 65
e 130 74
e 130 78
e 130 85
e 130 88
e 130 91
e 130 100
e 130 102
e 130 104
e 130 115
e 130 116
e 130 117
e 130 127
e 130 128
e 130 129
e 131 5
e 131 14
e 131 19
e 131 27
e 131 33
e 131 40
e 131 47
e 131 53
e 131 61
e 131 66
e 131 71
e 131 75
e 131 79
e 131 86
e 131 89
e 131 92
e 131 101
e 131 103
e 131 105
e 131 116
e 131 117
e 131 118
e 131 127
e 131 128
e 131 129
e 131 130
e 132 6
e 132 20
e 132 28
e 132 34
e 132 41
e 132 48
e 132 54
e 132 57
e 132 62
e 132 67
e 132 72
e 132 76
e 132 80
e 132 87
e 132 90
e 132 93
e 132 102
e 132 104
e 132 106
e 132 117
e 132 118
e 132 119
e 132 127
e 132 128
e 132 129
e 132 130
e 132 131
e 133 7
e 133 21
e 133 35
e 133 42
e 133 43
e 133 49
e 133 55
e 133 58
e 133 63
e 133 68
e 133 73
e 133 77
e 133 81
e 133 88
e 133 91
e 133 94
e 133 103
e 133 105
e 133 107
e 133 118
e 133 119
e 133 120
e 133 127
e 133 128
e 133 129
e 133 130
e 133 131
e 133 132
e 134 8
e 134 22
e 134 29
e 134 36
e 134 44
e 134 50
e 134 56
e 134 59
e 134 64
e 134 69
e 134 74
e 134 78
e 134 82
e 134 89
e 134 92
e 134 95
e 134 104
e 134 106
e 134 108
e 134 119
e 134 120
e 134 121
e 134 127
e 134 128
e 134 129
e 134 130
e 134 131
e 134 132
e 134 133
e 135 9
e 135 15
e 135 23
e 135 30
e 135 37
e 135 45
e 135 51
e 135 60
e 135 65
e 135 70
e 135 75
e 135 79
e 135 83
e 135 90
e 135 93
e 135 96
e 135 105
e 135 107
e 135 109
e 135 120
e 135 121
e 135 122
e 135 127
e 135 128
e 135 129
e 135 130
e 135 131
e 135 132
e 135 133
e 135 134
e 136 1
e 136 10
e 136 16
e 136 24
e 136 31
e 136 38
e 136 46
e 136 52
e 136 61
e 136 66
e 136 76
e 136 80
e 136 84
e 136 91
e 136 94
e 136 97
e 136 106
e 136 108
e 136 110
e 136 121
e 136 122
e 136 123
e 136 127
e 136 128
e 136 129
e 136 130
e 136 131
e 136 132
e 136 133
e 136 134
e 136 135
e 137 2
e 137 11
e 137 17
e 137 25
e 137 32
e 137 39
e 137 47
e 137 53
e 137 62
e 137 67
e 137 77
e 137 81
e 137 92
e 137 95
e 137 98
e 137 107
e 137 109
e 137 111
e 137 122
e 137 123
e 137 124
e 137 127
e 137 128
e 137 129
e 137 130
e 137 131
e 137 132
e 137 133
e 137 134
e 137 135
e 137 136
e 138 3
e 138 12
e 138 18
e 138 26
e 138 33
e 138 40
e 138 48
e 138 54
e 138 63
e 138 68
e 138 78
e 138 82
e 138 93
e 138 96
e 138 108
e 138 110
e 138 112
e 138 123
e 138 124
e 138 125
e 138 127
e 138 128
e 138 129
e 138 130
e 138 131
e 138 132
e 138 133
e 138 134
e 138 135
e 138 136
e 138 137
e 139 4
e 139 13
e 139 19
e 139 27
e 139 34
e 139 41
e 139 49
e 139 55
e 139 64
e 139 69
e 139 79
e 139 83
e 139 94
e 139 97
e 139 109
e 139 111
e 139 124
e 139 125
e 139 126
e 139 127
e 139 128
e 139 129
e 139 130
e 139 131
e 139 132
e 139 133
e 139 134
e 139 135
e 139 136
e 139 137
e 139 138
e 140 5
e 140 14
e 140 20
e 140 28
e 140 35
e 140 42
e 140 50
e 140 56
e 140 65
e 140 70
e 140 80
e 140 84
e 140 95
e 140 98
e 140 110
e 140 112
e 140 125
e 140 126
e 140 127
e 140 128
e 140 129
e 140 130
e 140 131
e 140 132
e 140 133
e 140 134
e 140 135
e 140 136
e 140 137
e 140 138
e 140 139
e 141 1
e 141 11
e 141 15
e 141 24
e 141 29
e 141 37
e 141 43
e 141 50
e 141 57
e 141 63
e 141 71
e 141 76
e 141 85
e 141 89
e 141 99
e 141 102
e 141 113
e 141 115
e 141 127
e 141 128
e 142 2
e 142 12
e 142 16
e 142 25
e 142 30
e 142 38
e 142 44
e 142 51
e 142 58
e 142 64
e 142 72
e 142 77
e 142 86
e 142 90
e 142 100
e 142 103
e 142 114
e 142 116
e 142 127
e 142 128
e 142 129
e 142 141
e 143 3
e 143 13
e 143 17
e 143 26
e 143 31
e 143 39
e 143 45
e 143 52
e 143 59
e 143 65
e 143 73
e 143 78
e 143 87
e 143 91
e 143 101
e 143 104
e 143 113
e 143 115
e 143 117
e 143 128
e 143 129
e 143 130
e 143 141
e 143 142
e 144 4
e 144 14
e 144 18
e 144 27
e 144 32
e 144 40
e 144 46
e 144 53
e 144 60
e 144 66
e 144 74
e 144 79
e 144 88
e 144 92
e 144 99
e 144 102
e 144 105
e 144 114
e 144 116
e 144 118
e 144 129
e 144 130
e 144 131
e 144 141
e 144 142
e 144 143
e 145 5
e 145 19
e 145 28
e 145 33
e 145 41
e 145 47
e 145 54
e 145 61
e 145 67
e 145 75
e 145 80
e 145 85
e 145 89
e 145 93
e 145 100
e 145 103
e 145 106
e 145 115
e 145 117
e 145 119
e 145 130
e 145 131
e 145 132
e 145 141
e 145 142
e 145 143
e 145 144
e 146 6
e 146 20
e 146 34
e 146 42
e 146 48
e 146 55
e 146 62
e 146 68
e 146 71
e 146 76
e 146 81
e 146 86
e 146 90
e 146 94
e 146 101
e 146 104
e 146 107
e 146 116
e 146 118
e 146 120
e 146 131
e 146 132
e 146 133
e 146 141
e 146 142
e 146 143
e 146 144
e 146 145
e 147 7
e 147 21
e 147 35
e 147 49
e 147 56
e 147 57
e 147 63
e 147 69
e 147 72
e 147 77
e 147 82
e 147 87
e 147 91
e 147 95
e 147 102
e 147 105
e 147 108
e 147 117
e 147 119
e 147 121
e 147 132
e 147 133
e 147 134
e 147 141
e 147 142
e 147 143
e 147 144
e 147 145
e 147 146
e 148 8
e 148 22
e 148 36
e 148 43
e 148 50
e 148 58
e 148 64
e 148 70
e 148 73
e 148 78
e 148 83
e 148 88
e 148 92
e 148 96
e 148 103
e 148 106
e 148 109
e 148 118
e 148 120
e 148 122
e 148 133
e 148 134
e 148 135
e 148 141
e 148 142
e 148 143
e 148 144
e 148 145
e 148 146
e 148 147
e 149 9
e 149 23
e 149 29
e 149 37
e 149 44
e 149 51
e 149 59
e 149 65
e 149 74
e 149 79
e 149 84
e 149 89
e 149 93
e 149 97
e 149 104
e 149 107
e 149 110
e 149 119
e 149 121
e 149 123
e 149 134
e 149 135
e 149 136
e 149 141
e 149 142
e 149 143
e 149 144
e 149 145
e 149 146
e 149 147
e 149 148
e 150 10
e 150 15
e 150 24
e 150 30
e 150 38
e 150 45
e 150 52
e 150 60
e 150 66
e 150 75
e 150 80
e 150 90
e 150 94
e 150 98
e 150 105
e 150 108
e 150 111
e 150 120
e 150 122
e 150 124
e 150 135
e 150 136
e 150 137
e 150 141
e 150 142
e 150 143
e 150 144
e 150 145
e 150 146
e 150 147
e 150 148
e 150 149
e 151 1
e 151 11
e 151 16
e 151 25
e 151 31
e 151 39
e 151 46
e 151 53
e 151 61
e 151 67
e 151 76
e 151 81
e 151 91
e 151 95
e 151 106
e 151 109
e 151 112
e 151 121
e 151 123
e 151 125
e 151 136
e 151 137
e 151 138
e 151 141
e 151 142
e 151 143
e 151 144
e 151 145
e 151 146
e 151 147
e 151 148
e 151 149
e 151 150
e 152 2
e 152 12
e 152 17
e 152 26
e 152 32
e 152 40
e 152 47
e 152 54
e 152 62
e 152 68
e 152 77
e 152 82
e 152 92
e 152 96
e 152 107
e 152 110
e 152 122
e 152 124
e 152 126
e 152 137
e 152 138
e 152 139
e 152 141
e 152 142
e 152 143
e 152 144
e 152 145
e 152 146
e 152 147
e 152 148
e 152 149
e 152 150
e 152 151
e 153 3
e 153 13
e 153 18
e 153 27
e 153 33
e 153 41
e 153 48
e 153 55
e 153 63
e 153 69
e 153 78
e 153 83
e 153 93
e 153 97
e 153 108
e 153 111
e 153 123
e 153 125
e 153 138
e 153 139
e 153 140
e 153 141
e 153 142
e 153 143
e 153 144
e 153 145
e 153 146
e 153 147
e 153 148
e 153 149
e 153 150
e 153 151
e 153 152
e 154 4
e 154 14
e 154 19
e 154 28
e 154 34
e 154 42
e 154 49
e 154 56
e 154 64
e 154 70
e 154 79
e 154 84
e 154 94
e 154 98
e 154 109
e 154 112
e 154 124
e 154 126
e 154 139
e 154 140
e 154 141
e 154 142
e 154 143
e 154 144
e 154 145
e 154 146
e 154 147
e 154 148
e 154 149
e 154 150
e 154 151
e 154 152
e 154 153
e 155 1
e 155 12
e 155 15
e 155 25
e 155 29
e 155 38
e 155 43
e 155 51
e 155 57
e 155 64
e 155 71
e 155 77
e 155 85
e 155 90
e 155 99
e 155 103
e 155 113
e 155 116
e 155 127
e 155 129
e 155 141
e 155 142
e 156 2
e 156 13
e 156 16
e 156 26
e 156 30
e 156 39
e 156 44
e 156 52
e 156 58
e 156 65
e 156 72
e 156 78
e 156 86
e 156 91
e 156 100
e 156 104
e 156 114
e 156 117
e 156 128
e 156 130
e 156 141
e 156 142
e 156 143
e 156 155
e 157 3
e 157 14
e 157 17
e 157 27
e 157 31
e 157 40
e 157 45
e 157 53
e 157 59
e 157 66
e 157 73
e 157 79
e 157 87
e 157 92
e 157 101
e 157 105
e 157 115
e 157 118
e 157 127
e 157 129
e 157 131
e 157 142
e 157 143
e 157 144
e 157 155
e 157 156
e 158 4
e 158 18
e 158 28
e 158 32
e 158 41
e 158 46
e 158 54
e 158 60
e 158 67
e 158 74
e 158 80
e 158 88
e 158 93
e 158 102
e 158 106
e 158 113
e 158 116
e 158 119
e 158 128
e 158 130
e 158 132
e 158 143
e 158 144
e 158 145
e 158 155
e 158 156
e 158 157
e 159 5
e 159 19
e 159 33
e 159 42
e 159 47
e 159 55
e 159 61
e 159 68
e 159 75
e 159 81
e 159 89
e 159 94
e 159 99
e 159 103
e 159 107
e 159 114
e 159 117
e 159 120
e 159 129
e 159 131
e 159 133
e 159 144
e 159 145
e 159 146
e 159 155
e 159 156
e 159 157
e 159 158
e 160 6
e 160 20
e 160 34
e 160 48
e 160 56
e 160 62
e 160 69
e 160 76
e 160 82
e 160 85
e 160 90
e 160 95
e 160 100
e 160 104
e 160 108
e 160 115
e 160 118
e 160 121
e 160 130
e 160 132
e 160 134
e 160 145
e 160 146
e 160 147
e 160 155
e 160 156
e 160 157
e 160 158
e 160 159
e 161 7
e 161 21
e 161 35
e 161 49
e 161 63
e 161 70
e 161 71
e 161 77
e 161 83
e 161 86
e 161 91
e 161 96
e 161 101
e 161 105
e 161 109
e 161 116
e 161 119
e 161 122
e 161 131
e 161 133
e 161 135
e 161 146
e 161 147
e 161 148
e 161 155
e 161 156
e 161 157
e 161 158
e 161 159
e 161 160
e 162 8
e 162 22
e 162 36
e 162 50
e 162 57
e 162 64
e 162 72
e 162 78
e 162 84
e 162 87
e 162 92
e 162 97
e 162 102
e 162 106
e 162 110
e 162 117
e 162 120
e 162 123
e 162 132
e 162 134
e 162 136
e 162 147
e 162 148
e 162 149
e 162 155
e 162 156
e 162 157
e 162 158
e 162 159
e 162 160
e 162 161
e 163 9
e 163 23
e 163 37
e 163 43
e 163 51
e 163 58
e 163 65
e 163 73
e 163 79
e 163 88
e 163 93
e 163 98
e 163 103
e 163 107
e 163 111
e 163 118
e 163 121
e 163 124
e 163 133
e 163 135
e 163 137
e 163 148
e 163 149
e 163 150
e 163 155
e 163 156
e 163 157
e 163 158
e 163 159
e 163 160
e 163 161
e 163 162
e 164 10
e 164 24
e 164 29
e 164 38
e 164 44
e 164 52
e 164 59
e 164 66
e 164 74
e 164 80
e 164 89
e 164 94
e 164 104
e 164 108
e 164 112
e 164 119
e 164 122
e 164 125
e 164 134
e 164 136
e 164 138
e 164 149
e 164 150
e 164 151
e 164 155
e 164 156
e 164 157
e 164 158
e 164 159
e 164 160
e 164 161
e 164 162
e 164 163
e 165 11
e 165 15
e 165 25
e 165 30
e 165 39
e 165 45
e 165 53
e 165 60
e 165 67
e 165 75
e 165 81
e 165 90
e 165 95
e 165 105
e 165 109
e 165 120
e 165 123
e 165 126
e 165 135
e 165 137
e 165 139
e 165 150
e 165 151
e 165 152
e 165 155
e 165 156
e 165 157
e 165 158
e 165 159
e 165 160
e 165 161
e 165 162
e 165 163
e 165 164
e 166 1
e 166 12
e 166 16
e 166 26
e 166 31
e 166 40
e 166 46
e 166 54
e 166 61
e 166 68
e 166 76
e 166 82
e 166 91
e 166 96
e 166 106
e 166 110
e 166 121
e 166 124
e 166 136
e 166 138
e 166 140
e 166 151
e 166 152
e 166 153
e 166 155
e 166 156
e 166 157
e 166 158
e 166 159
e 166 160
e 166 161
e 166 162
e 166 163
e 166 164
e 166 165
e 167 2
e 167 13
e 167 17
e 167 27
e 167 32
e 167 41
e 167 47
e 167 55
e 167 62
e 167 69
e 167 77
e 167 83
e 167 92
e 167 97
e 167 107
e 167 111
e 167 122
e 167 125
e 167 137
e 167 139
e 167 152
e 167 153
e 167 154
e 167 155
e 167 156
e 167 157
e 167 158
e 167 159
e 167 160
e 167 161
e 167 162
e 167 163
e 167 164
e 167 165
e 167 166
e 168 3
e 168 14
e 168 18
e 168 28
e 168 33
e 168 42
e 168 48
e 168 56
e 168 63
e 168 70
e 168 78
e 168 84
e 168 93
e 168 98
e 168 108
e 168 112
e 168 123
e 168 126
e 168 138
e 168 140
e 168 153
e 168 154
e 168 155
e 168 156
e 168 157
e 168 158
e 168 159
e 168 160
e 168 161
e 168 162
e 168 163
e 168 164
e 168 165
e 168 166
e 168 167
e 169 1
e 169 13
e 169 15
e 169 26
e 169 29
e 169 39
e 169 43
e 169 52
e 169 57
e 169 65
e 169 71
e 169 78
e 169 85
e 169 91
e 169 99
e 169 104
e 169 113
e 169 117
e 169 127
e 169 130
e 169 141
e 169 143
e 169 155
e 169 156
e 170 2
e 170 14
e 170 16
e 170 27
e 170 30
e 170 40
e 170 44
e 170 53
e 170 58
e 170 66
e 170 72
e 170 79
e 170 86
e 170 92
e 170 100
e 170 105
e 170 114
e 170 118
e 170 128
e 170 131
e 170 142
e 170 144
e 170 155
e 170 156
e 170 157
e 170 169
e 171 3
e 171 17
e 171 28
e 171 31
e 171 41
e 171 45
e 171 54
e 171 59
e 171 67
e 171 73
e 171 80
e 171 87
e 171 93
e 171 101
e 171 106
e 171 115
e 171 119
e 171 129
e 171 132
e 171 141
e 171 143
e 171 145
e 171 156
e 171 157
e 171 158
e 171 169
e 171 170
e 172 4
e 172 18
e 172 32
e 172 42
e 172 46
e 172 55
e 172 60
e 172 68
e 172 74
e 172 81
e 172 88
e 172 94
e 172 102
e 172 107
e 172 116
e 172 120
e 172 127
e 172 130
e 172 133
e 172 142
e 172 144
e 172 146
e 172 157
e 172 158
e 172 159
e 172 169
e 172 170
e 172 171
e 173 5
e 173 19
e 173 33
e 173 47
e 173 56
e 173 61
e 173 69
e 173 75
e 173 82
e 173 89
e 173 95
e 173 103
e 173 108
e 173 113
e 173 117
e 173 121
e 173 128
e 173 131
e 173 134
e 173 143
e 173 145
e 173 147
e 173 158
e 173 159
e 173 160
e 173 169
e 173 170
e 173 171
e 173 172
e 174 6
e 174 20
e 174 34
e 174 48
e 174 62
e 174 70
e 174 76
e 174 83
e 174 90
e 174 96
e 174 99
e 174 104
e 174 109
e 174 114
e 174 118
e 174 122
e 174 129
e 174 132
e 174 135
e 174 144
e 174 146
e 174 148
e 174 159
e 174 160
e 174 161
e 174 169
e 174 170
e 174 171
e 174 172
e 174 173
e 175 7
e 175 21
e 175 35
e 175 49
e 175 63
e 175 77
e 175 84
e 175 85
e 175 91
e 175 97
e 175 100
e 175 105
e 175 110
e 175 115
e 175 119
e 175 123
e 175 130
e 175 133
e 175 136
e 175 145
e 175 147
e 175 149
e 175 160
e 175 161
e 175 162
e 175 169
e 175 170
e 175 171
e 175 172
e 175 173
e 175 174
e 176 8
e 176 22
e 176 36
e 176 50
e 176 64
e 176 71
e 176 78
e 176 86
e 176 92
e 176 98
e 176 101
e 176 106
e 176 111
e 176 116
e 176 120
e 176 124
e 176 131
e 176 134
e 176 137
e 176 146
e 176 148
e 176 150
e 176 161
e 176 162
e 176 163
e 176 169
e 176 170
e 176 171
e 176 172
e 176 173
e 176 174
e 176 175
e 177 9
e 177 23
e 177 37
e 177 51
e 177 57
e 177 65
e 177 72
e 177 79
e 177 87
e 177 93
e 177 102
e 177 107
e 177 112
e 177 117
e 177 121
e 177 125
e 177 132
e 177 135
e 177 138
e 177 147
e 177 149
e 177 151
e 177 162
e 177 163
e 177 164
e 177 169
e 177 170
e 177 171
e 177 172
e 177 173
e 177 174
e 177 175
e 177 176
e 178 10
e 178 24
e 178 38
e 178 43
e 178 52
e 178 58
e 178 66
e 178 73
e 178 80
e 178 88
e 178 94
e 178 103
e 178 108
e 178 118
e 178 122
e 178 126
e 178 133
e 178 136
e 178 139
e 178 148
e 178 150
e 178 152
e 178 163
e 178 164
e 178 165
e 178 169
e 178 170
e 178 171
e 178 172
e 178 173
e 178 174
e 178 175
e 178 176
e 178 177
e 179 11
e 179 25
e 179 29
e 179 39
e 179 44
e 179 53
e 179 59
e 179 67
e 179 74
e 179 81
e 179 89
e 179 95
e 179 104
e 179 109
e 179 119
e 179 123
e 179 134
e 179 137
e 179 140
e 179 149
e 179 151
e 179 153
e 179 164
e 179 165
e 179 166
e 179 169
e 179 170
e 179 171
e 179 172
e 179 173
e 179 174
e 179 175
e 179 176
e 179 177
e 179 178
e 180 12
e 180 15
e 180 26
e 180 30
e 180 40
e 180 45
e 180 54
e 180 60
e 180 68
e 180 75
e 180 82
e 180 90
e 180 96
e 180 105
e 180 110
e 180 120
e 180 124
e 180 135
e 180 138
e 180 150
e 180 152
e 180 154
e 180 165
e 180 166
e 180 167
e 180 169
e 180 170
e 180 171
e 180 172
e 180 173
e 180 174
e 180 175
e 180 176
e 180 177
e 180 178
e 180 179
e 181 1
e 181 13
e 181 16
e 181 27
e 181 31
e 181 41
e 181 46
e 181 55
e 181 61
e 181 69
e 181 76
e 181 83
e 181 91
e 181 97
e 181 106
e 181 111
e 181 121
e 181 125
e 181 136
e 181 139
e 181 151
e 181 153
e 181 166
e 181 167
e 181 168
e 181 169
e 181 170
e 181 171
e 181 172
e 181 173
e 181 174
e 181 175
e 181 176
e 181 177
e 181 178
e 181 179
e 181 180
e 182 2
e 182 14
e 182 17
e 182 28
e 182 32
e 182 42
e 182 47
e 182 56
e 182 62
e 182 70
e 182 77
e 182 84
e 182 92
e 182 98
e 182 107
e 182 112
e 182 122
e 182 126
e 182 137
e 182 140
e 182 152
e 182 154
e 182 167
e 182 168
e 182 169
e 182 170
e 182 171
e 182 172
e 182 173
e 182 174
e 182 175
e 182 176
e 182 177
e 182 178
e 182 179
e 182 180
e 182 181
e 183 1
e 183 14
e 183 15
e 183 27
e 183 29
e 183 40
e 183 43
e 183 53
e 183 57
e 183 66
e 183 71
e 183 79
e 183 85
e 183 92
e 183 99
e 183 105
e 183 113
e 183 118
e 183 127
e 183 131
e 183 141
e 183 144
e 183 155
e 183 157
e 183 169
e 183 170
e 184 2
e 184 16
e 184 28
e 184 30
e 184 41
e 184 44
e 184 54
e 184 58
e 184 67
e 184 72
e 184 80
e 184 86
e 184 93
e 184 100
e 184 106
e 184 114
e 184 119
e 184 128
e 184 132
e 184 142
e 184 145
e 184 156
e 184 158
e 184 169
e 184 170
e 184 171
e 184 183
e 185 3
e 185 17
e 185 31
e 185 42
e 185 45
e 185 55
e 185 59
e 185 68
e 185 73
e 185 81
e 185 87
e 185 94
e 185 101
e 185 107
e 185 115
e 185 120
e 185 129
e 185 133
e 185 143
e 185 146
e 185 155
e 185 157
e 185 159
e 185 170
e 185 171
e 185 172
e 185 183
e 185 184
e 186 4
e 186 18
e 186 32
e 186 46
e 186 56
e 186 60
e 186 69
e 186 74
e 186 82
e 186 88
e 186 95
e 186 102
e 186 108
e 186 116
e 186 121
e 186 130
e 186 134
e 186 141
e 186 144
e 186 147
e 186 156
e 186 158
e 186 160
e 186 171
e 186 172
e 186 173
e 186 183
e 186 184
e 186 185
e 187 5
e 187 19
e 187 33
e 187 47
e 187 61
e 187 70
e 187 75
e 187 83
e 187 89
e 187 96
e 187 103
e 187 109
e 187 117
e 187 122
e 187 127
e 187 131
e 187 135
e 187 142
e 187 145
e 187 148
e 187 157
e 187 159
e 187 161
e 187 172
e 187 173
e 187 174
e 187 183
e 187 184
e 187 185
e 187 186
e 188 6
e 188 20
e 188 34
e 188 48
e 188 62
e 188 76
e 188 84
e 188 90
e 188 97
e 188 104
e 188 110
e 188 113
e 188 118
e 188 123
e 188 128
e 188 132
e 188 136
e 188 143
e 188 146
e 188 149
e 188 158
e 188 160
e 188 162
e 188 173
e 188 174
e 188 175
e 188 183
e 188 184
e 188 185
e 188 186
e 188 187
e 189 7
e 189 21
e 189 35
e 189 49
e 189 63
e 189 77
e 189 91
e 189 98
e 189 99
e 189 105
e 189 111
e 189 114
e 189 119
e 189 124
e 189 129
e 189 133
e 189 137
e 189 144
e 189 147
e 189 150
e 189 159
e 189 161
e 189 163
e 189 174
e 189 175
e 189 176
e 189 183
e 189 184
e 189 185
e 189 186
e 189 187
e 189 188
e 190 8
e 190 22
e 190 36
e 190 50
e 190 64
e 190 78
e 190 85
e 190 92
e 190 100
e 190 106
e 190 112
e 190 115
e 190 120
e 190 125
e 190 130
e 190 134
e 190 138
e 190 145
e 190 148
e 190 151
e 190 160
e 190 162
e 190 164
e 190 175
e 190 176
e 190 177
e 190 183
e 190 184
e 190 185
e 190 186
e 190 187
e 190 188
e 190 189
e 191 9
e 191 23
e 191 37
e 191 51
e 191 65
e 191 71
e 191 79
e 191 86
e 191 93
e 191 101
e 191 107
e 191 116
e 191 121
e 191 126
e 191 131
e 191 135
e 191 139
e 191 146
e 191 149
e 191 152
e 191 161
e 191 163
e 191 165
e 191 176
e 191 177
e 191 178
e 191 183
e 191 184
e 191 185
e 191 186
e 191 187
e 191 188
e 191 189
e 191 190
e 192 10
e 192 24
e 192 38
e 192 52
e 192 57
e 192 66
e 192 72
e 192 80
e 192 87
e 192 94
e 192 102
e 192 108
e 192 117
e 192 122
e 192 132
e 192 136
e 192 140
e 192 147
e 192 150
e 192 153
e 192 162
e 192 164
e 192 166
e 192 177
e 192 178
e 192 179
e 192 183
e 192 184
e 192 185
e 192 186
e 192 187
e 192 188
e 192 189
e 192 190
e 192 191
e 193 11
e 193 25
e 193 39
e 193 43
e 193 53
e 193 58
e 193 67
e 193 73
e 193 81
e 193 88
e 193 95
e 193 103
e 193 109
e 193 118
e 193 123
e 193 133
e 193 137
e 193 148
e 193 151
e 193 154
e 193 163
e 193 165
e 193 167
e 193 178
e 193 179
e 193 180
e 193 183
e 193 184
e 193 185
e 193 186
e 193 187
e 193 188
e 193 189
e 193 190
e 193 191
e 193 192
e 194 12
e 194 26
e 194 29
e 194 40
e 194 44
e 194 54
e 194 59
e 194 68
e 194 74
e 194 82
e 194 89
e 194 96
e 194 104
e 194 110
e 194 119
e 194 124
e 194 134
e 194 138
e 194 149
e 194 152
e 194 164
e 194 166
e 194 168
e 194 179
e 194 180
e 194 181
e 194 183
e 194 184
e 194 185
e 194 186
e 194 187
e 194 188
e 194 189
e 194 190
e 194 191
e 194 192
e 194 193
e 195 13
e 195 15
e 195 27
e 195 30
e 195 41
e 195 45
e 195 55
e 195 60
e 195 69
e 195 75
e 195 83
e 195 90
e 195 97
e 195 105
e 195 111
e 195 120
e 195 125
e 195 135
e 195 139
e 195 150
e 195 153
e 195 165
e 195 167
e 195 180
e 195 181
e 195 182
e 195 183
e 195 184
e 195 185
e 195 186
e 195 187
e 195 188
e 195 189
e 195 190
e 195 191
e 195 192
e 195 193
e 195 194
e 196 1
e 196 14
e 196 16
e 196 28
e 196 31
e 196 42
e 196 46
e 196 56
e 196 61
e 196 70
e 196 76
e 196 84
e 196 91
e 196 98
e 196 106
e 196 112
e 196 121
e 196 126
e 196 136
e 196 140
e 196 151
e 196 154
e 196 166
e 196 168
e 196 181
e 196 182
e 196 183
e 196 184
e 196 185
e 196 186
e 196 187
e 196 188
e 196 189
e 196 190
e 196 191
e 196 192
e 196 193
e 196 194
e 196 195
